p cnf 14 27
-14 11 -8 0
-14 8 -3 0
14 7 -3 0
-13 11 5 0
13 10 8 0
13 -10 -2 0
-13 10 -1 0
13 -7 6 0
13 -6 -3 0
-13 6 1 0
-12 10 6 0
12 10 4 0
-12 -9 -7 0
12 7 -5 0
11 -10 6 0
-11 -10 2 0
-11 10 -1 0
11 -8 7 0
-10 8 1 0
-10 -7 -2 0
-10 -4 -1 0
-9 7 3 0
9 7 1 0
-9 4 -3 0
9 -4 -2 0
8 7 -2 0
-8 -6 -3 0
